NAME: mtsp
TYPE: TSP
DIMENSION: 11
EDGE_WEIGHT_TYPE: EUC_2D
NODE_COORD_SECTION
1 50.0 50.0
2 60.0 40.0
3 65.0 45.0
4 55.0 65.0
5 35.0 40.0
6 50.0 30.0
7 45.0 45.0
8 55.0 25.0
9 40.0 60.0
10 65.0 55.0
11 30.0 50.0
EOF
